; benchmark generated from python API
(set-info :status unknown)
(declare-fun cell_1_1 () Int)
(declare-fun cell_1_2 () Int)
(declare-fun cell_1_3 () Int)
(declare-fun cell_1_4 () Int)
(declare-fun cell_1_5 () Int)
(declare-fun cell_1_6 () Int)
(declare-fun cell_1_7 () Int)
(declare-fun cell_1_8 () Int)
(declare-fun cell_1_9 () Int)
(declare-fun cell_2_1 () Int)
(declare-fun cell_3_1 () Int)
(declare-fun cell_4_1 () Int)
(declare-fun cell_5_1 () Int)
(declare-fun cell_6_1 () Int)
(declare-fun cell_7_1 () Int)
(declare-fun cell_8_1 () Int)
(declare-fun cell_9_1 () Int)
(declare-fun cell_2_2 () Int)
(declare-fun cell_3_2 () Int)
(declare-fun cell_4_2 () Int)
(declare-fun cell_5_2 () Int)
(declare-fun cell_6_2 () Int)
(declare-fun cell_7_2 () Int)
(declare-fun cell_8_2 () Int)
(declare-fun cell_9_2 () Int)
(declare-fun cell_2_3 () Int)
(declare-fun cell_3_3 () Int)
(declare-fun cell_4_3 () Int)
(declare-fun cell_5_3 () Int)
(declare-fun cell_6_3 () Int)
(declare-fun cell_7_3 () Int)
(declare-fun cell_8_3 () Int)
(declare-fun cell_9_3 () Int)
(declare-fun cell_2_4 () Int)
(declare-fun cell_3_4 () Int)
(declare-fun cell_4_4 () Int)
(declare-fun cell_5_4 () Int)
(declare-fun cell_6_4 () Int)
(declare-fun cell_7_4 () Int)
(declare-fun cell_8_4 () Int)
(declare-fun cell_9_4 () Int)
(declare-fun cell_2_5 () Int)
(declare-fun cell_3_5 () Int)
(declare-fun cell_4_5 () Int)
(declare-fun cell_5_5 () Int)
(declare-fun cell_6_5 () Int)
(declare-fun cell_7_5 () Int)
(declare-fun cell_8_5 () Int)
(declare-fun cell_9_5 () Int)
(declare-fun cell_2_6 () Int)
(declare-fun cell_3_6 () Int)
(declare-fun cell_4_6 () Int)
(declare-fun cell_5_6 () Int)
(declare-fun cell_6_6 () Int)
(declare-fun cell_7_6 () Int)
(declare-fun cell_8_6 () Int)
(declare-fun cell_9_6 () Int)
(declare-fun cell_2_7 () Int)
(declare-fun cell_3_7 () Int)
(declare-fun cell_4_7 () Int)
(declare-fun cell_5_7 () Int)
(declare-fun cell_6_7 () Int)
(declare-fun cell_7_7 () Int)
(declare-fun cell_8_7 () Int)
(declare-fun cell_9_7 () Int)
(declare-fun cell_2_8 () Int)
(declare-fun cell_3_8 () Int)
(declare-fun cell_4_8 () Int)
(declare-fun cell_5_8 () Int)
(declare-fun cell_6_8 () Int)
(declare-fun cell_7_8 () Int)
(declare-fun cell_8_8 () Int)
(declare-fun cell_9_8 () Int)
(declare-fun cell_2_9 () Int)
(declare-fun cell_3_9 () Int)
(declare-fun cell_4_9 () Int)
(declare-fun cell_5_9 () Int)
(declare-fun cell_6_9 () Int)
(declare-fun cell_7_9 () Int)
(declare-fun cell_8_9 () Int)
(declare-fun cell_9_9 () Int)
(assert
 (= cell_1_1 2))
(assert
 (= cell_1_2 4))
(assert
 (= cell_1_3 5))
(assert
 (= cell_1_4 7))
(assert
 (= cell_1_5 3))
(assert
 (= cell_1_6 8))
(assert
 (= cell_1_7 6))
(assert
 (= cell_1_8 1))
(assert
 (= cell_1_9 9))
(assert
 (let (($x10105 (= cell_1_1 2)))
 (or (= cell_1_1 1) $x10105 (= cell_1_1 3) (= cell_1_1 4) (= cell_1_1 5) (= cell_1_1 6) (= cell_1_1 7) (= cell_1_1 8) (= cell_1_1 9))))
(assert
 (let (($x8341 (= cell_2_1 9)))
 (let (($x7322 (= cell_2_1 5)))
 (let (($x9065 (= cell_2_1 4)))
 (let (($x7817 (= cell_2_1 2)))
 (or (= cell_2_1 1) $x7817 (= cell_2_1 3) $x9065 $x7322 (= cell_2_1 6) (= cell_2_1 7) (= cell_2_1 8) $x8341))))))
(assert
 (let (($x1496 (= cell_3_1 5)))
 (let (($x3714 (= cell_3_1 4)))
 (let (($x435 (= cell_3_1 2)))
 (or (= cell_3_1 1) $x435 (= cell_3_1 3) $x3714 $x1496 (= cell_3_1 6) (= cell_3_1 7) (= cell_3_1 8) (= cell_3_1 9))))))
(assert
 (let (($x4503 (= cell_4_1 2)))
 (or (= cell_4_1 1) $x4503 (= cell_4_1 3) (= cell_4_1 4) (= cell_4_1 5) (= cell_4_1 6) (= cell_4_1 7) (= cell_4_1 8) (= cell_4_1 9))))
(assert
 (let (($x2990 (= cell_5_1 2)))
 (or (= cell_5_1 1) $x2990 (= cell_5_1 3) (= cell_5_1 4) (= cell_5_1 5) (= cell_5_1 6) (= cell_5_1 7) (= cell_5_1 8) (= cell_5_1 9))))
(assert
 (let (($x1303 (= cell_6_1 2)))
 (or (= cell_6_1 1) $x1303 (= cell_6_1 3) (= cell_6_1 4) (= cell_6_1 5) (= cell_6_1 6) (= cell_6_1 7) (= cell_6_1 8) (= cell_6_1 9))))
(assert
 (let (($x7049 (= cell_7_1 2)))
 (or (= cell_7_1 1) $x7049 (= cell_7_1 3) (= cell_7_1 4) (= cell_7_1 5) (= cell_7_1 6) (= cell_7_1 7) (= cell_7_1 8) (= cell_7_1 9))))
(assert
 (let (($x1282 (= cell_8_1 2)))
 (let (($x750 (= cell_8_1 1)))
 (or $x750 $x1282 (= cell_8_1 3) (= cell_8_1 4) (= cell_8_1 5) (= cell_8_1 6) (= cell_8_1 7) (= cell_8_1 8) (= cell_8_1 9)))))
(assert
 (let (($x1309 (= cell_9_1 2)))
 (or (= cell_9_1 1) $x1309 (= cell_9_1 3) (= cell_9_1 4) (= cell_9_1 5) (= cell_9_1 6) (= cell_9_1 7) (= cell_9_1 8) (= cell_9_1 9))))
(assert
 (let (($x3666 (= cell_1_2 4)))
 (or (= cell_1_2 1) (= cell_1_2 2) (= cell_1_2 3) $x3666 (= cell_1_2 5) (= cell_1_2 6) (= cell_1_2 7) (= cell_1_2 8) (= cell_1_2 9))))
(assert
 (let (($x1597 (= cell_2_2 5)))
 (let (($x1977 (= cell_2_2 4)))
 (let (($x164 (= cell_2_2 2)))
 (or (= cell_2_2 1) $x164 (= cell_2_2 3) $x1977 $x1597 (= cell_2_2 6) (= cell_2_2 7) (= cell_2_2 8) (= cell_2_2 9))))))
(assert
 (let (($x3271 (= cell_3_2 5)))
 (let (($x6459 (= cell_3_2 4)))
 (let (($x6519 (= cell_3_2 2)))
 (or (= cell_3_2 1) $x6519 (= cell_3_2 3) $x6459 $x3271 (= cell_3_2 6) (= cell_3_2 7) (= cell_3_2 8) (= cell_3_2 9))))))
(assert
 (let (($x2613 (= cell_4_2 4)))
 (let (($x3848 (= cell_4_2 3)))
 (or (= cell_4_2 1) (= cell_4_2 2) $x3848 $x2613 (= cell_4_2 5) (= cell_4_2 6) (= cell_4_2 7) (= cell_4_2 8) (= cell_4_2 9)))))
(assert
 (let (($x5522 (= cell_5_2 4)))
 (or (= cell_5_2 1) (= cell_5_2 2) (= cell_5_2 3) $x5522 (= cell_5_2 5) (= cell_5_2 6) (= cell_5_2 7) (= cell_5_2 8) (= cell_5_2 9))))
(assert
 (let (($x2891 (= cell_6_2 4)))
 (or (= cell_6_2 1) (= cell_6_2 2) (= cell_6_2 3) $x2891 (= cell_6_2 5) (= cell_6_2 6) (= cell_6_2 7) (= cell_6_2 8) (= cell_6_2 9))))
(assert
 (let (($x1281 (= cell_7_2 4)))
 (let (($x9869 (= cell_7_2 1)))
 (or $x9869 (= cell_7_2 2) (= cell_7_2 3) $x1281 (= cell_7_2 5) (= cell_7_2 6) (= cell_7_2 7) (= cell_7_2 8) (= cell_7_2 9)))))
(assert
 (let (($x7691 (= cell_8_2 4)))
 (or (= cell_8_2 1) (= cell_8_2 2) (= cell_8_2 3) $x7691 (= cell_8_2 5) (= cell_8_2 6) (= cell_8_2 7) (= cell_8_2 8) (= cell_8_2 9))))
(assert
 (let (($x6322 (= cell_9_2 4)))
 (or (= cell_9_2 1) (= cell_9_2 2) (= cell_9_2 3) $x6322 (= cell_9_2 5) (= cell_9_2 6) (= cell_9_2 7) (= cell_9_2 8) (= cell_9_2 9))))
(assert
 (let (($x3401 (= cell_1_3 5)))
 (or (= cell_1_3 1) (= cell_1_3 2) (= cell_1_3 3) (= cell_1_3 4) $x3401 (= cell_1_3 6) (= cell_1_3 7) (= cell_1_3 8) (= cell_1_3 9))))
(assert
 (let (($x6165 (= cell_2_3 5)))
 (let (($x56 (= cell_2_3 4)))
 (let (($x1428 (= cell_2_3 2)))
 (or (= cell_2_3 1) $x1428 (= cell_2_3 3) $x56 $x6165 (= cell_2_3 6) (= cell_2_3 7) (= cell_2_3 8) (= cell_2_3 9))))))
(assert
 (let (($x3424 (= cell_3_3 5)))
 (let (($x3991 (= cell_3_3 4)))
 (let (($x8074 (= cell_3_3 3)))
 (let (($x7722 (= cell_3_3 2)))
 (or (= cell_3_3 1) $x7722 $x8074 $x3991 $x3424 (= cell_3_3 6) (= cell_3_3 7) (= cell_3_3 8) (= cell_3_3 9)))))))
(assert
 (let (($x8140 (= cell_4_3 5)))
 (or (= cell_4_3 1) (= cell_4_3 2) (= cell_4_3 3) (= cell_4_3 4) $x8140 (= cell_4_3 6) (= cell_4_3 7) (= cell_4_3 8) (= cell_4_3 9))))
(assert
 (let (($x700 (= cell_5_3 5)))
 (or (= cell_5_3 1) (= cell_5_3 2) (= cell_5_3 3) (= cell_5_3 4) $x700 (= cell_5_3 6) (= cell_5_3 7) (= cell_5_3 8) (= cell_5_3 9))))
(assert
 (let (($x6849 (= cell_6_3 5)))
 (let (($x5857 (= cell_6_3 1)))
 (or $x5857 (= cell_6_3 2) (= cell_6_3 3) (= cell_6_3 4) $x6849 (= cell_6_3 6) (= cell_6_3 7) (= cell_6_3 8) (= cell_6_3 9)))))
(assert
 (let (($x2203 (= cell_7_3 5)))
 (or (= cell_7_3 1) (= cell_7_3 2) (= cell_7_3 3) (= cell_7_3 4) $x2203 (= cell_7_3 6) (= cell_7_3 7) (= cell_7_3 8) (= cell_7_3 9))))
(assert
 (let (($x205 (= cell_8_3 5)))
 (or (= cell_8_3 1) (= cell_8_3 2) (= cell_8_3 3) (= cell_8_3 4) $x205 (= cell_8_3 6) (= cell_8_3 7) (= cell_8_3 8) (= cell_8_3 9))))
(assert
 (let (($x7498 (= cell_9_3 5)))
 (or (= cell_9_3 1) (= cell_9_3 2) (= cell_9_3 3) (= cell_9_3 4) $x7498 (= cell_9_3 6) (= cell_9_3 7) (= cell_9_3 8) (= cell_9_3 9))))
(assert
 (let (($x7965 (= cell_1_4 7)))
 (or (= cell_1_4 1) (= cell_1_4 2) (= cell_1_4 3) (= cell_1_4 4) (= cell_1_4 5) (= cell_1_4 6) $x7965 (= cell_1_4 8) (= cell_1_4 9))))
(assert
 (let (($x8360 (= cell_2_4 8)))
 (let (($x1457 (= cell_2_4 7)))
 (let (($x5562 (= cell_2_4 3)))
 (or (= cell_2_4 1) (= cell_2_4 2) $x5562 (= cell_2_4 4) (= cell_2_4 5) (= cell_2_4 6) $x1457 $x8360 (= cell_2_4 9))))))
(assert
 (let (($x1670 (= cell_3_4 8)))
 (let (($x6176 (= cell_3_4 7)))
 (let (($x9521 (= cell_3_4 4)))
 (let (($x609 (= cell_3_4 3)))
 (or (= cell_3_4 1) (= cell_3_4 2) $x609 $x9521 (= cell_3_4 5) (= cell_3_4 6) $x6176 $x1670 (= cell_3_4 9)))))))
(assert
 (let (($x3398 (= cell_4_4 7)))
 (or (= cell_4_4 1) (= cell_4_4 2) (= cell_4_4 3) (= cell_4_4 4) (= cell_4_4 5) (= cell_4_4 6) $x3398 (= cell_4_4 8) (= cell_4_4 9))))
(assert
 (let (($x2909 (= cell_5_4 7)))
 (let (($x49 (= cell_5_4 1)))
 (or $x49 (= cell_5_4 2) (= cell_5_4 3) (= cell_5_4 4) (= cell_5_4 5) (= cell_5_4 6) $x2909 (= cell_5_4 8) (= cell_5_4 9)))))
(assert
 (let (($x7850 (= cell_6_4 7)))
 (or (= cell_6_4 1) (= cell_6_4 2) (= cell_6_4 3) (= cell_6_4 4) (= cell_6_4 5) (= cell_6_4 6) $x7850 (= cell_6_4 8) (= cell_6_4 9))))
(assert
 (let (($x5982 (= cell_7_4 7)))
 (or (= cell_7_4 1) (= cell_7_4 2) (= cell_7_4 3) (= cell_7_4 4) (= cell_7_4 5) (= cell_7_4 6) $x5982 (= cell_7_4 8) (= cell_7_4 9))))
(assert
 (let (($x1012 (= cell_8_4 7)))
 (or (= cell_8_4 1) (= cell_8_4 2) (= cell_8_4 3) (= cell_8_4 4) (= cell_8_4 5) (= cell_8_4 6) $x1012 (= cell_8_4 8) (= cell_8_4 9))))
(assert
 (let (($x3416 (= cell_9_4 7)))
 (or (= cell_9_4 1) (= cell_9_4 2) (= cell_9_4 3) (= cell_9_4 4) (= cell_9_4 5) (= cell_9_4 6) $x3416 (= cell_9_4 8) (= cell_9_4 9))))
(assert
 (let (($x2436 (= cell_1_5 3)))
 (or (= cell_1_5 1) (= cell_1_5 2) $x2436 (= cell_1_5 4) (= cell_1_5 5) (= cell_1_5 6) (= cell_1_5 7) (= cell_1_5 8) (= cell_1_5 9))))
(assert
 (let (($x95 (= cell_2_5 8)))
 (let (($x1389 (= cell_2_5 7)))
 (let (($x8968 (= cell_2_5 3)))
 (or (= cell_2_5 1) (= cell_2_5 2) $x8968 (= cell_2_5 4) (= cell_2_5 5) (= cell_2_5 6) $x1389 $x95 (= cell_2_5 9))))))
(assert
 (let (($x4188 (= cell_3_5 8)))
 (let (($x6589 (= cell_3_5 7)))
 (let (($x4521 (= cell_3_5 3)))
 (or (= cell_3_5 1) (= cell_3_5 2) $x4521 (= cell_3_5 4) (= cell_3_5 5) (= cell_3_5 6) $x6589 $x4188 (= cell_3_5 9))))))
(assert
 (let (($x2139 (= cell_4_5 4)))
 (let (($x7076 (= cell_4_5 3)))
 (let (($x5326 (= cell_4_5 1)))
 (or $x5326 (= cell_4_5 2) $x7076 $x2139 (= cell_4_5 5) (= cell_4_5 6) (= cell_4_5 7) (= cell_4_5 8) (= cell_4_5 9))))))
(assert
 (let (($x8734 (= cell_5_5 3)))
 (or (= cell_5_5 1) (= cell_5_5 2) $x8734 (= cell_5_5 4) (= cell_5_5 5) (= cell_5_5 6) (= cell_5_5 7) (= cell_5_5 8) (= cell_5_5 9))))
(assert
 (let (($x7820 (= cell_6_5 3)))
 (or (= cell_6_5 1) (= cell_6_5 2) $x7820 (= cell_6_5 4) (= cell_6_5 5) (= cell_6_5 6) (= cell_6_5 7) (= cell_6_5 8) (= cell_6_5 9))))
(assert
 (let (($x9030 (= cell_7_5 3)))
 (or (= cell_7_5 1) (= cell_7_5 2) $x9030 (= cell_7_5 4) (= cell_7_5 5) (= cell_7_5 6) (= cell_7_5 7) (= cell_7_5 8) (= cell_7_5 9))))
(assert
 (let (($x7263 (= cell_8_5 3)))
 (or (= cell_8_5 1) (= cell_8_5 2) $x7263 (= cell_8_5 4) (= cell_8_5 5) (= cell_8_5 6) (= cell_8_5 7) (= cell_8_5 8) (= cell_8_5 9))))
(assert
 (let (($x299 (= cell_9_5 3)))
 (or (= cell_9_5 1) (= cell_9_5 2) $x299 (= cell_9_5 4) (= cell_9_5 5) (= cell_9_5 6) (= cell_9_5 7) (= cell_9_5 8) (= cell_9_5 9))))
(assert
 (let (($x2427 (= cell_1_6 8)))
 (or (= cell_1_6 1) (= cell_1_6 2) (= cell_1_6 3) (= cell_1_6 4) (= cell_1_6 5) (= cell_1_6 6) (= cell_1_6 7) $x2427 (= cell_1_6 9))))
(assert
 (let (($x3538 (= cell_2_6 8)))
 (let (($x2553 (= cell_2_6 7)))
 (let (($x2106 (= cell_2_6 3)))
 (or (= cell_2_6 1) (= cell_2_6 2) $x2106 (= cell_2_6 4) (= cell_2_6 5) (= cell_2_6 6) $x2553 $x3538 (= cell_2_6 9))))))
(assert
 (let (($x256 (= cell_3_6 8)))
 (let (($x842 (= cell_3_6 7)))
 (let (($x511 (= cell_3_6 3)))
 (let (($x3188 (= cell_3_6 1)))
 (or $x3188 (= cell_3_6 2) $x511 (= cell_3_6 4) (= cell_3_6 5) (= cell_3_6 6) $x842 $x256 (= cell_3_6 9)))))))
(assert
 (let (($x2094 (= cell_4_6 8)))
 (or (= cell_4_6 1) (= cell_4_6 2) (= cell_4_6 3) (= cell_4_6 4) (= cell_4_6 5) (= cell_4_6 6) (= cell_4_6 7) $x2094 (= cell_4_6 9))))
(assert
 (let (($x4712 (= cell_5_6 8)))
 (let (($x1923 (= cell_5_6 4)))
 (or (= cell_5_6 1) (= cell_5_6 2) (= cell_5_6 3) $x1923 (= cell_5_6 5) (= cell_5_6 6) (= cell_5_6 7) $x4712 (= cell_5_6 9)))))
(assert
 (let (($x7179 (= cell_6_6 8)))
 (or (= cell_6_6 1) (= cell_6_6 2) (= cell_6_6 3) (= cell_6_6 4) (= cell_6_6 5) (= cell_6_6 6) (= cell_6_6 7) $x7179 (= cell_6_6 9))))
(assert
 (let (($x3138 (= cell_7_6 8)))
 (or (= cell_7_6 1) (= cell_7_6 2) (= cell_7_6 3) (= cell_7_6 4) (= cell_7_6 5) (= cell_7_6 6) (= cell_7_6 7) $x3138 (= cell_7_6 9))))
(assert
 (let (($x4583 (= cell_8_6 8)))
 (or (= cell_8_6 1) (= cell_8_6 2) (= cell_8_6 3) (= cell_8_6 4) (= cell_8_6 5) (= cell_8_6 6) (= cell_8_6 7) $x4583 (= cell_8_6 9))))
(assert
 (let (($x6723 (= cell_9_6 8)))
 (or (= cell_9_6 1) (= cell_9_6 2) (= cell_9_6 3) (= cell_9_6 4) (= cell_9_6 5) (= cell_9_6 6) (= cell_9_6 7) $x6723 (= cell_9_6 9))))
(assert
 (let (($x2644 (= cell_1_7 6)))
 (or (= cell_1_7 1) (= cell_1_7 2) (= cell_1_7 3) (= cell_1_7 4) (= cell_1_7 5) $x2644 (= cell_1_7 7) (= cell_1_7 8) (= cell_1_7 9))))
(assert
 (let (($x774 (= cell_2_7 9)))
 (let (($x10007 (= cell_2_7 6)))
 (let (($x6650 (= cell_2_7 1)))
 (or $x6650 (= cell_2_7 2) (= cell_2_7 3) (= cell_2_7 4) (= cell_2_7 5) $x10007 (= cell_2_7 7) (= cell_2_7 8) $x774)))))
(assert
 (let (($x3326 (= cell_3_7 9)))
 (let (($x9622 (= cell_3_7 6)))
 (let (($x6521 (= cell_3_7 3)))
 (let (($x6184 (= cell_3_7 1)))
 (or $x6184 (= cell_3_7 2) $x6521 (= cell_3_7 4) (= cell_3_7 5) $x9622 (= cell_3_7 7) (= cell_3_7 8) $x3326))))))
(assert
 (let (($x1985 (= cell_4_7 6)))
 (or (= cell_4_7 1) (= cell_4_7 2) (= cell_4_7 3) (= cell_4_7 4) (= cell_4_7 5) $x1985 (= cell_4_7 7) (= cell_4_7 8) (= cell_4_7 9))))
(assert
 (let (($x740 (= cell_5_7 6)))
 (or (= cell_5_7 1) (= cell_5_7 2) (= cell_5_7 3) (= cell_5_7 4) (= cell_5_7 5) $x740 (= cell_5_7 7) (= cell_5_7 8) (= cell_5_7 9))))
(assert
 (let (($x687 (= cell_6_7 6)))
 (let (($x3511 (= cell_6_7 4)))
 (or (= cell_6_7 1) (= cell_6_7 2) (= cell_6_7 3) $x3511 (= cell_6_7 5) $x687 (= cell_6_7 7) (= cell_6_7 8) (= cell_6_7 9)))))
(assert
 (let (($x9093 (= cell_7_7 6)))
 (or (= cell_7_7 1) (= cell_7_7 2) (= cell_7_7 3) (= cell_7_7 4) (= cell_7_7 5) $x9093 (= cell_7_7 7) (= cell_7_7 8) (= cell_7_7 9))))
(assert
 (let (($x458 (= cell_8_7 6)))
 (or (= cell_8_7 1) (= cell_8_7 2) (= cell_8_7 3) (= cell_8_7 4) (= cell_8_7 5) $x458 (= cell_8_7 7) (= cell_8_7 8) (= cell_8_7 9))))
(assert
 (let (($x3621 (= cell_9_7 6)))
 (or (= cell_9_7 1) (= cell_9_7 2) (= cell_9_7 3) (= cell_9_7 4) (= cell_9_7 5) $x3621 (= cell_9_7 7) (= cell_9_7 8) (= cell_9_7 9))))
(assert
 (let (($x1867 (= cell_1_8 1)))
 (or $x1867 (= cell_1_8 2) (= cell_1_8 3) (= cell_1_8 4) (= cell_1_8 5) (= cell_1_8 6) (= cell_1_8 7) (= cell_1_8 8) (= cell_1_8 9))))
(assert
 (let (($x8201 (= cell_2_8 9)))
 (let (($x106 (= cell_2_8 6)))
 (let (($x7914 (= cell_2_8 1)))
 (or $x7914 (= cell_2_8 2) (= cell_2_8 3) (= cell_2_8 4) (= cell_2_8 5) $x106 (= cell_2_8 7) (= cell_2_8 8) $x8201)))))
(assert
 (let (($x5476 (= cell_3_8 9)))
 (let (($x2515 (= cell_3_8 6)))
 (let (($x436 (= cell_3_8 1)))
 (or $x436 (= cell_3_8 2) (= cell_3_8 3) (= cell_3_8 4) (= cell_3_8 5) $x2515 (= cell_3_8 7) (= cell_3_8 8) $x5476)))))
(assert
 (let (($x5968 (= cell_4_8 3)))
 (let (($x4841 (= cell_4_8 1)))
 (or $x4841 (= cell_4_8 2) $x5968 (= cell_4_8 4) (= cell_4_8 5) (= cell_4_8 6) (= cell_4_8 7) (= cell_4_8 8) (= cell_4_8 9)))))
(assert
 (let (($x775 (= cell_5_8 1)))
 (or $x775 (= cell_5_8 2) (= cell_5_8 3) (= cell_5_8 4) (= cell_5_8 5) (= cell_5_8 6) (= cell_5_8 7) (= cell_5_8 8) (= cell_5_8 9))))
(assert
 (let (($x4836 (= cell_6_8 1)))
 (or $x4836 (= cell_6_8 2) (= cell_6_8 3) (= cell_6_8 4) (= cell_6_8 5) (= cell_6_8 6) (= cell_6_8 7) (= cell_6_8 8) (= cell_6_8 9))))
(assert
 (let (($x8814 (= cell_7_8 4)))
 (let (($x6815 (= cell_7_8 1)))
 (or $x6815 (= cell_7_8 2) (= cell_7_8 3) $x8814 (= cell_7_8 5) (= cell_7_8 6) (= cell_7_8 7) (= cell_7_8 8) (= cell_7_8 9)))))
(assert
 (let (($x2400 (= cell_8_8 1)))
 (or $x2400 (= cell_8_8 2) (= cell_8_8 3) (= cell_8_8 4) (= cell_8_8 5) (= cell_8_8 6) (= cell_8_8 7) (= cell_8_8 8) (= cell_8_8 9))))
(assert
 (let (($x8054 (= cell_9_8 1)))
 (or $x8054 (= cell_9_8 2) (= cell_9_8 3) (= cell_9_8 4) (= cell_9_8 5) (= cell_9_8 6) (= cell_9_8 7) (= cell_9_8 8) (= cell_9_8 9))))
(assert
 (let (($x797 (= cell_1_9 9)))
 (or (= cell_1_9 1) (= cell_1_9 2) (= cell_1_9 3) (= cell_1_9 4) (= cell_1_9 5) (= cell_1_9 6) (= cell_1_9 7) (= cell_1_9 8) $x797)))
(assert
 (let (($x6484 (= cell_2_9 9)))
 (let (($x949 (= cell_2_9 6)))
 (let (($x270 (= cell_2_9 1)))
 (or $x270 (= cell_2_9 2) (= cell_2_9 3) (= cell_2_9 4) (= cell_2_9 5) $x949 (= cell_2_9 7) (= cell_2_9 8) $x6484)))))
(assert
 (let (($x8896 (= cell_3_9 9)))
 (let (($x1025 (= cell_3_9 6)))
 (let (($x5455 (= cell_3_9 1)))
 (or $x5455 (= cell_3_9 2) (= cell_3_9 3) (= cell_3_9 4) (= cell_3_9 5) $x1025 (= cell_3_9 7) (= cell_3_9 8) $x8896)))))
(assert
 (let (($x2911 (= cell_4_9 9)))
 (or (= cell_4_9 1) (= cell_4_9 2) (= cell_4_9 3) (= cell_4_9 4) (= cell_4_9 5) (= cell_4_9 6) (= cell_4_9 7) (= cell_4_9 8) $x2911)))
(assert
 (let (($x2004 (= cell_5_9 9)))
 (or (= cell_5_9 1) (= cell_5_9 2) (= cell_5_9 3) (= cell_5_9 4) (= cell_5_9 5) (= cell_5_9 6) (= cell_5_9 7) (= cell_5_9 8) $x2004)))
(assert
 (let (($x6407 (= cell_6_9 9)))
 (or (= cell_6_9 1) (= cell_6_9 2) (= cell_6_9 3) (= cell_6_9 4) (= cell_6_9 5) (= cell_6_9 6) (= cell_6_9 7) (= cell_6_9 8) $x6407)))
(assert
 (let (($x6553 (= cell_7_9 9)))
 (or (= cell_7_9 1) (= cell_7_9 2) (= cell_7_9 3) (= cell_7_9 4) (= cell_7_9 5) (= cell_7_9 6) (= cell_7_9 7) (= cell_7_9 8) $x6553)))
(assert
 (let (($x5824 (= cell_8_9 9)))
 (let (($x7591 (= cell_8_9 4)))
 (or (= cell_8_9 1) (= cell_8_9 2) (= cell_8_9 3) $x7591 (= cell_8_9 5) (= cell_8_9 6) (= cell_8_9 7) (= cell_8_9 8) $x5824))))
(assert
 (let (($x5248 (= cell_9_9 9)))
 (or (= cell_9_9 1) (= cell_9_9 2) (= cell_9_9 3) (= cell_9_9 4) (= cell_9_9 5) (= cell_9_9 6) (= cell_9_9 7) (= cell_9_9 8) $x5248)))
(assert
 (and (distinct cell_1_1 cell_1_2 cell_1_3 cell_1_4 cell_1_5 cell_1_6 cell_1_7 cell_1_8 cell_1_9) true))
(assert
 (and (distinct cell_2_1 cell_2_2 cell_2_3 cell_2_4 cell_2_5 cell_2_6 cell_2_7 cell_2_8 cell_2_9) true))
(assert
 (and (distinct cell_3_1 cell_3_2 cell_3_3 cell_3_4 cell_3_5 cell_3_6 cell_3_7 cell_3_8 cell_3_9) true))
(assert
 (and (distinct cell_4_1 cell_4_2 cell_4_3 cell_4_4 cell_4_5 cell_4_6 cell_4_7 cell_4_8 cell_4_9) true))
(assert
 (and (distinct cell_5_1 cell_5_2 cell_5_3 cell_5_4 cell_5_5 cell_5_6 cell_5_7 cell_5_8 cell_5_9) true))
(assert
 (and (distinct cell_6_1 cell_6_2 cell_6_3 cell_6_4 cell_6_5 cell_6_6 cell_6_7 cell_6_8 cell_6_9) true))
(assert
 (and (distinct cell_7_1 cell_7_2 cell_7_3 cell_7_4 cell_7_5 cell_7_6 cell_7_7 cell_7_8 cell_7_9) true))
(assert
 (and (distinct cell_8_1 cell_8_2 cell_8_3 cell_8_4 cell_8_5 cell_8_6 cell_8_7 cell_8_8 cell_8_9) true))
(assert
 (and (distinct cell_9_1 cell_9_2 cell_9_3 cell_9_4 cell_9_5 cell_9_6 cell_9_7 cell_9_8 cell_9_9) true))
(assert
 (and (distinct cell_1_1 cell_2_1 cell_3_1 cell_4_1 cell_5_1 cell_6_1 cell_7_1 cell_8_1 cell_9_1) true))
(assert
 (and (distinct cell_1_2 cell_2_2 cell_3_2 cell_4_2 cell_5_2 cell_6_2 cell_7_2 cell_8_2 cell_9_2) true))
(assert
 (and (distinct cell_1_3 cell_2_3 cell_3_3 cell_4_3 cell_5_3 cell_6_3 cell_7_3 cell_8_3 cell_9_3) true))
(assert
 (and (distinct cell_1_4 cell_2_4 cell_3_4 cell_4_4 cell_5_4 cell_6_4 cell_7_4 cell_8_4 cell_9_4) true))
(assert
 (and (distinct cell_1_5 cell_2_5 cell_3_5 cell_4_5 cell_5_5 cell_6_5 cell_7_5 cell_8_5 cell_9_5) true))
(assert
 (and (distinct cell_1_6 cell_2_6 cell_3_6 cell_4_6 cell_5_6 cell_6_6 cell_7_6 cell_8_6 cell_9_6) true))
(assert
 (and (distinct cell_1_7 cell_2_7 cell_3_7 cell_4_7 cell_5_7 cell_6_7 cell_7_7 cell_8_7 cell_9_7) true))
(assert
 (and (distinct cell_1_8 cell_2_8 cell_3_8 cell_4_8 cell_5_8 cell_6_8 cell_7_8 cell_8_8 cell_9_8) true))
(assert
 (and (distinct cell_1_9 cell_2_9 cell_3_9 cell_4_9 cell_5_9 cell_6_9 cell_7_9 cell_8_9 cell_9_9) true))
(assert
 (and (distinct cell_1_1 cell_1_2 cell_1_3 cell_2_1 cell_2_2 cell_2_3 cell_3_1 cell_3_2 cell_3_3) true))
(assert
 (and (distinct cell_1_4 cell_1_5 cell_1_6 cell_2_4 cell_2_5 cell_2_6 cell_3_4 cell_3_5 cell_3_6) true))
(assert
 (and (distinct cell_1_7 cell_1_8 cell_1_9 cell_2_7 cell_2_8 cell_2_9 cell_3_7 cell_3_8 cell_3_9) true))
(assert
 (and (distinct cell_4_1 cell_4_2 cell_4_3 cell_5_1 cell_5_2 cell_5_3 cell_6_1 cell_6_2 cell_6_3) true))
(assert
 (and (distinct cell_4_4 cell_4_5 cell_4_6 cell_5_4 cell_5_5 cell_5_6 cell_6_4 cell_6_5 cell_6_6) true))
(assert
 (and (distinct cell_4_7 cell_4_8 cell_4_9 cell_5_7 cell_5_8 cell_5_9 cell_6_7 cell_6_8 cell_6_9) true))
(assert
 (and (distinct cell_7_1 cell_7_2 cell_7_3 cell_8_1 cell_8_2 cell_8_3 cell_9_1 cell_9_2 cell_9_3) true))
(assert
 (and (distinct cell_7_4 cell_7_5 cell_7_6 cell_8_4 cell_8_5 cell_8_6 cell_9_4 cell_9_5 cell_9_6) true))
(assert
 (and (distinct cell_7_7 cell_7_8 cell_7_9 cell_8_7 cell_8_8 cell_8_9 cell_9_7 cell_9_8 cell_9_9) true))
(assert
 (let (($x7832 (and (distinct cell_5_9 cell_6_8 cell_7_7 cell_8_6) true)))
 (let (($x4795 (and (distinct cell_2_9 cell_3_8 cell_4_7 cell_5_6 cell_6_5 cell_7_4 cell_8_3 cell_9_2) true)))
 (let (($x1286 (and (distinct cell_1_8 cell_2_7 cell_3_6 cell_4_5 cell_5_4 cell_6_3 cell_7_2 cell_8_1) true)))
 (let (($x74 (and (distinct cell_1_5 cell_2_4 cell_3_3 cell_4_2) true)))
 (let (($x7463 (and (distinct cell_5_1 cell_6_2 cell_7_3 cell_8_4) true)))
 (let (($x1528 (and (distinct cell_2_1 cell_3_2 cell_4_3 cell_5_4 cell_6_5 cell_7_6 cell_8_7 cell_9_8) true)))
 (let (($x795 (and (distinct cell_1_2 cell_2_3 cell_3_4 cell_4_5 cell_5_6 cell_6_7 cell_7_8 cell_8_9) true)))
 (let (($x41 (and (distinct cell_1_5 cell_2_6 cell_3_7 cell_4_8) true)))
 (and $x41 $x795 $x1528 $x7463 $x74 $x1286 $x4795 $x7832))))))))))
(assert
 (= cell_2_1 9))
(check-sat)
